Maximize
 obj: 0 X1
Subject To
 c1:
  + 8400 X1 + 3190 X2 + 1080 X3 + 8260 X4 + 1650 X5 + 1260 X6 + 3290 X7 + 2690 X8
  + 4480 X9 + 5820 X10
  <= 20060
 obj1:
  + 149 X1 + 741 X2 + 532 X3 + 380 X4 + 656 X5 + 391 X6 + 694 X7 + 371 X8
  + 579 X9 + 662 X10
  >= 1
 obj2:
  + 154 X1 + 201 X2 + 489 X3 + 993 X4 + 788 X5 + 148 X6 + 82 X7 + 232 X8
  + 312 X9 + 178 X10
  >= 2
 obj3:
  + 384 X1 + 23 X2 + 987 X3 + 847 X4 + 18 X5 + 504 X6 + 104 X7 + 322 X8
  + 253 X9 + 668 X10
  >= 3
 obj4:
  + 215 X1 + 402 X2 + 408 X3 + 746 X4 + 782 X5 + 63 X6 + 137 X7 + 476 X8
  + 434 X9 + 715 X10
  >= 4
 obj5:
  + 137 X1 + 587 X2 + 916 X3 + 626 X4 + 580 X5 + 703 X6 + 774 X7 + 662 X8
  + 935 X9 + 86 X10
  >= 5
Binary
 X1
 X2
 X3
 X4
 X5
 X6
 X7
 X8
 X9
 X10
End
